c
c Generated WCNF file
c
p wcnf 277 1312 50870
50870 24 0
50870 -25 1 0
50870 -25 2 0
50870 25 -1 -2 0
50870 -26 1 0
50870 -26 3 0
50870 26 -1 -3 0
50870 -27 1 0
50870 -27 4 0
50870 27 -1 -4 0
50870 -28 1 0
50870 -28 5 0
50870 28 -1 -5 0
50870 -29 1 0
50870 -29 6 0
50870 29 -1 -6 0
50870 -30 1 0
50870 -30 7 0
50870 30 -1 -7 0
50870 -31 1 0
50870 -31 8 0
50870 31 -1 -8 0
50870 -32 1 0
50870 -32 9 0
50870 32 -1 -9 0
50870 -33 1 0
50870 -33 10 0
50870 33 -1 -10 0
50870 -34 1 0
50870 -34 11 0
50870 34 -1 -11 0
50870 -35 1 0
50870 -35 12 0
50870 35 -1 -12 0
50870 -36 1 0
50870 -36 13 0
50870 36 -1 -13 0
50870 -37 1 0
50870 -37 14 0
50870 37 -1 -14 0
50870 -38 1 0
50870 -38 15 0
50870 38 -1 -15 0
50870 -39 1 0
50870 -39 16 0
50870 39 -1 -16 0
50870 -40 1 0
50870 -40 17 0
50870 40 -1 -17 0
50870 -41 1 0
50870 -41 18 0
50870 41 -1 -18 0
50870 -42 1 0
50870 -42 19 0
50870 42 -1 -19 0
50870 -43 1 0
50870 -43 20 0
50870 43 -1 -20 0
50870 -44 1 0
50870 -44 21 0
50870 44 -1 -21 0
50870 -45 1 0
50870 -45 22 0
50870 45 -1 -22 0
50870 -46 1 0
50870 -46 23 0
50870 46 -1 -23 0
50870 -47 2 0
50870 -47 3 0
50870 47 -2 -3 0
50870 -48 2 0
50870 -48 4 0
50870 48 -2 -4 0
50870 -49 2 0
50870 -49 5 0
50870 49 -2 -5 0
50870 -50 2 0
50870 -50 6 0
50870 50 -2 -6 0
50870 -51 2 0
50870 -51 7 0
50870 51 -2 -7 0
50870 -52 2 0
50870 -52 8 0
50870 52 -2 -8 0
50870 -53 2 0
50870 -53 9 0
50870 53 -2 -9 0
50870 -54 2 0
50870 -54 10 0
50870 54 -2 -10 0
50870 -55 2 0
50870 -55 11 0
50870 55 -2 -11 0
50870 -56 2 0
50870 -56 12 0
50870 56 -2 -12 0
50870 -57 2 0
50870 -57 13 0
50870 57 -2 -13 0
50870 -58 2 0
50870 -58 14 0
50870 58 -2 -14 0
50870 -59 2 0
50870 -59 15 0
50870 59 -2 -15 0
50870 -60 2 0
50870 -60 16 0
50870 60 -2 -16 0
50870 -61 2 0
50870 -61 17 0
50870 61 -2 -17 0
50870 -62 2 0
50870 -62 18 0
50870 62 -2 -18 0
50870 -63 2 0
50870 -63 19 0
50870 63 -2 -19 0
50870 -64 2 0
50870 -64 20 0
50870 64 -2 -20 0
50870 -65 2 0
50870 -65 21 0
50870 65 -2 -21 0
50870 -66 2 0
50870 -66 22 0
50870 66 -2 -22 0
50870 -67 2 0
50870 -67 23 0
50870 67 -2 -23 0
50870 -68 3 0
50870 -68 4 0
50870 68 -3 -4 0
50870 -69 3 0
50870 -69 5 0
50870 69 -3 -5 0
50870 -70 3 0
50870 -70 6 0
50870 70 -3 -6 0
50870 -71 3 0
50870 -71 7 0
50870 71 -3 -7 0
50870 -72 3 0
50870 -72 8 0
50870 72 -3 -8 0
50870 -73 3 0
50870 -73 9 0
50870 73 -3 -9 0
50870 -74 3 0
50870 -74 10 0
50870 74 -3 -10 0
50870 -75 3 0
50870 -75 11 0
50870 75 -3 -11 0
50870 -76 3 0
50870 -76 12 0
50870 76 -3 -12 0
50870 -77 3 0
50870 -77 13 0
50870 77 -3 -13 0
50870 -78 3 0
50870 -78 14 0
50870 78 -3 -14 0
50870 -79 3 0
50870 -79 15 0
50870 79 -3 -15 0
50870 -80 3 0
50870 -80 16 0
50870 80 -3 -16 0
50870 -81 3 0
50870 -81 17 0
50870 81 -3 -17 0
50870 -82 3 0
50870 -82 18 0
50870 82 -3 -18 0
50870 -83 3 0
50870 -83 19 0
50870 83 -3 -19 0
50870 -84 3 0
50870 -84 20 0
50870 84 -3 -20 0
50870 -85 3 0
50870 -85 21 0
50870 85 -3 -21 0
50870 -86 3 0
50870 -86 22 0
50870 86 -3 -22 0
50870 -87 3 0
50870 -87 23 0
50870 87 -3 -23 0
50870 -88 4 0
50870 -88 5 0
50870 88 -4 -5 0
50870 -89 4 0
50870 -89 6 0
50870 89 -4 -6 0
50870 -90 4 0
50870 -90 7 0
50870 90 -4 -7 0
50870 -91 4 0
50870 -91 8 0
50870 91 -4 -8 0
50870 -92 4 0
50870 -92 9 0
50870 92 -4 -9 0
50870 -93 4 0
50870 -93 10 0
50870 93 -4 -10 0
50870 -94 4 0
50870 -94 11 0
50870 94 -4 -11 0
50870 -95 4 0
50870 -95 12 0
50870 95 -4 -12 0
50870 -96 4 0
50870 -96 13 0
50870 96 -4 -13 0
50870 -97 4 0
50870 -97 14 0
50870 97 -4 -14 0
50870 -98 4 0
50870 -98 15 0
50870 98 -4 -15 0
50870 -99 4 0
50870 -99 16 0
50870 99 -4 -16 0
50870 -100 4 0
50870 -100 17 0
50870 100 -4 -17 0
50870 -101 4 0
50870 -101 18 0
50870 101 -4 -18 0
50870 -102 4 0
50870 -102 19 0
50870 102 -4 -19 0
50870 -103 4 0
50870 -103 20 0
50870 103 -4 -20 0
50870 -104 4 0
50870 -104 21 0
50870 104 -4 -21 0
50870 -105 4 0
50870 -105 22 0
50870 105 -4 -22 0
50870 -106 4 0
50870 -106 23 0
50870 106 -4 -23 0
50870 -107 5 0
50870 -107 6 0
50870 107 -5 -6 0
50870 -108 5 0
50870 -108 7 0
50870 108 -5 -7 0
50870 -109 5 0
50870 -109 8 0
50870 109 -5 -8 0
50870 -110 5 0
50870 -110 9 0
50870 110 -5 -9 0
50870 -111 5 0
50870 -111 10 0
50870 111 -5 -10 0
50870 -112 5 0
50870 -112 11 0
50870 112 -5 -11 0
50870 -113 5 0
50870 -113 12 0
50870 113 -5 -12 0
50870 -114 5 0
50870 -114 13 0
50870 114 -5 -13 0
50870 -115 5 0
50870 -115 14 0
50870 115 -5 -14 0
50870 -116 5 0
50870 -116 15 0
50870 116 -5 -15 0
50870 -117 5 0
50870 -117 16 0
50870 117 -5 -16 0
50870 -118 5 0
50870 -118 17 0
50870 118 -5 -17 0
50870 -119 5 0
50870 -119 18 0
50870 119 -5 -18 0
50870 -120 5 0
50870 -120 19 0
50870 120 -5 -19 0
50870 -121 5 0
50870 -121 20 0
50870 121 -5 -20 0
50870 -122 5 0
50870 -122 21 0
50870 122 -5 -21 0
50870 -123 5 0
50870 -123 22 0
50870 123 -5 -22 0
50870 -124 5 0
50870 -124 23 0
50870 124 -5 -23 0
50870 -125 6 0
50870 -125 7 0
50870 125 -6 -7 0
50870 -126 6 0
50870 -126 8 0
50870 126 -6 -8 0
50870 -127 6 0
50870 -127 9 0
50870 127 -6 -9 0
50870 -128 6 0
50870 -128 10 0
50870 128 -6 -10 0
50870 -129 6 0
50870 -129 11 0
50870 129 -6 -11 0
50870 -130 6 0
50870 -130 12 0
50870 130 -6 -12 0
50870 -131 6 0
50870 -131 13 0
50870 131 -6 -13 0
50870 -132 6 0
50870 -132 14 0
50870 132 -6 -14 0
50870 -133 6 0
50870 -133 15 0
50870 133 -6 -15 0
50870 -134 6 0
50870 -134 16 0
50870 134 -6 -16 0
50870 -135 6 0
50870 -135 17 0
50870 135 -6 -17 0
50870 -136 6 0
50870 -136 18 0
50870 136 -6 -18 0
50870 -137 6 0
50870 -137 19 0
50870 137 -6 -19 0
50870 -138 6 0
50870 -138 20 0
50870 138 -6 -20 0
50870 -139 6 0
50870 -139 21 0
50870 139 -6 -21 0
50870 -140 6 0
50870 -140 22 0
50870 140 -6 -22 0
50870 -141 6 0
50870 -141 23 0
50870 141 -6 -23 0
50870 -142 7 0
50870 -142 8 0
50870 142 -7 -8 0
50870 -143 7 0
50870 -143 9 0
50870 143 -7 -9 0
50870 -144 7 0
50870 -144 10 0
50870 144 -7 -10 0
50870 -145 7 0
50870 -145 11 0
50870 145 -7 -11 0
50870 -146 7 0
50870 -146 12 0
50870 146 -7 -12 0
50870 -147 7 0
50870 -147 13 0
50870 147 -7 -13 0
50870 -148 7 0
50870 -148 14 0
50870 148 -7 -14 0
50870 -149 7 0
50870 -149 15 0
50870 149 -7 -15 0
50870 -150 7 0
50870 -150 16 0
50870 150 -7 -16 0
50870 -151 7 0
50870 -151 17 0
50870 151 -7 -17 0
50870 -152 7 0
50870 -152 18 0
50870 152 -7 -18 0
50870 -153 7 0
50870 -153 19 0
50870 153 -7 -19 0
50870 -154 7 0
50870 -154 20 0
50870 154 -7 -20 0
50870 -155 7 0
50870 -155 21 0
50870 155 -7 -21 0
50870 -156 7 0
50870 -156 22 0
50870 156 -7 -22 0
50870 -157 7 0
50870 -157 23 0
50870 157 -7 -23 0
50870 -158 8 0
50870 -158 9 0
50870 158 -8 -9 0
50870 -159 8 0
50870 -159 10 0
50870 159 -8 -10 0
50870 -160 8 0
50870 -160 11 0
50870 160 -8 -11 0
50870 -161 8 0
50870 -161 12 0
50870 161 -8 -12 0
50870 -162 8 0
50870 -162 13 0
50870 162 -8 -13 0
50870 -163 8 0
50870 -163 14 0
50870 163 -8 -14 0
50870 -164 8 0
50870 -164 15 0
50870 164 -8 -15 0
50870 -165 8 0
50870 -165 16 0
50870 165 -8 -16 0
50870 -166 8 0
50870 -166 17 0
50870 166 -8 -17 0
50870 -167 8 0
50870 -167 18 0
50870 167 -8 -18 0
50870 -168 8 0
50870 -168 19 0
50870 168 -8 -19 0
50870 -169 8 0
50870 -169 20 0
50870 169 -8 -20 0
50870 -170 8 0
50870 -170 21 0
50870 170 -8 -21 0
50870 -171 8 0
50870 -171 22 0
50870 171 -8 -22 0
50870 -172 8 0
50870 -172 23 0
50870 172 -8 -23 0
50870 -173 9 0
50870 -173 10 0
50870 173 -9 -10 0
50870 -174 9 0
50870 -174 11 0
50870 174 -9 -11 0
50870 -175 9 0
50870 -175 12 0
50870 175 -9 -12 0
50870 -176 9 0
50870 -176 13 0
50870 176 -9 -13 0
50870 -177 9 0
50870 -177 14 0
50870 177 -9 -14 0
50870 -178 9 0
50870 -178 15 0
50870 178 -9 -15 0
50870 -179 9 0
50870 -179 16 0
50870 179 -9 -16 0
50870 -180 9 0
50870 -180 17 0
50870 180 -9 -17 0
50870 -181 9 0
50870 -181 18 0
50870 181 -9 -18 0
50870 -182 9 0
50870 -182 19 0
50870 182 -9 -19 0
50870 -183 9 0
50870 -183 20 0
50870 183 -9 -20 0
50870 -184 9 0
50870 -184 21 0
50870 184 -9 -21 0
50870 -185 9 0
50870 -185 22 0
50870 185 -9 -22 0
50870 -186 9 0
50870 -186 23 0
50870 186 -9 -23 0
50870 -187 10 0
50870 -187 11 0
50870 187 -10 -11 0
50870 -188 10 0
50870 -188 12 0
50870 188 -10 -12 0
50870 -189 10 0
50870 -189 13 0
50870 189 -10 -13 0
50870 -190 10 0
50870 -190 14 0
50870 190 -10 -14 0
50870 -191 10 0
50870 -191 15 0
50870 191 -10 -15 0
50870 -192 10 0
50870 -192 16 0
50870 192 -10 -16 0
50870 -193 10 0
50870 -193 17 0
50870 193 -10 -17 0
50870 -194 10 0
50870 -194 18 0
50870 194 -10 -18 0
50870 -195 10 0
50870 -195 19 0
50870 195 -10 -19 0
50870 -196 10 0
50870 -196 20 0
50870 196 -10 -20 0
50870 -197 10 0
50870 -197 21 0
50870 197 -10 -21 0
50870 -198 10 0
50870 -198 22 0
50870 198 -10 -22 0
50870 -199 10 0
50870 -199 23 0
50870 199 -10 -23 0
50870 -200 11 0
50870 -200 12 0
50870 200 -11 -12 0
50870 -201 11 0
50870 -201 13 0
50870 201 -11 -13 0
50870 -202 11 0
50870 -202 14 0
50870 202 -11 -14 0
50870 -203 11 0
50870 -203 15 0
50870 203 -11 -15 0
50870 -204 11 0
50870 -204 16 0
50870 204 -11 -16 0
50870 -205 11 0
50870 -205 17 0
50870 205 -11 -17 0
50870 -206 11 0
50870 -206 18 0
50870 206 -11 -18 0
50870 -207 11 0
50870 -207 19 0
50870 207 -11 -19 0
50870 -208 11 0
50870 -208 20 0
50870 208 -11 -20 0
50870 -209 11 0
50870 -209 21 0
50870 209 -11 -21 0
50870 -210 11 0
50870 -210 22 0
50870 210 -11 -22 0
50870 -211 11 0
50870 -211 23 0
50870 211 -11 -23 0
50870 -212 12 0
50870 -212 13 0
50870 212 -12 -13 0
50870 -213 12 0
50870 -213 14 0
50870 213 -12 -14 0
50870 -214 12 0
50870 -214 15 0
50870 214 -12 -15 0
50870 -215 12 0
50870 -215 16 0
50870 215 -12 -16 0
50870 -216 12 0
50870 -216 17 0
50870 216 -12 -17 0
50870 -217 12 0
50870 -217 18 0
50870 217 -12 -18 0
50870 -218 12 0
50870 -218 19 0
50870 218 -12 -19 0
50870 -219 12 0
50870 -219 20 0
50870 219 -12 -20 0
50870 -220 12 0
50870 -220 21 0
50870 220 -12 -21 0
50870 -221 12 0
50870 -221 22 0
50870 221 -12 -22 0
50870 -222 12 0
50870 -222 23 0
50870 222 -12 -23 0
50870 -223 13 0
50870 -223 14 0
50870 223 -13 -14 0
50870 -224 13 0
50870 -224 15 0
50870 224 -13 -15 0
50870 -225 13 0
50870 -225 16 0
50870 225 -13 -16 0
50870 -226 13 0
50870 -226 17 0
50870 226 -13 -17 0
50870 -227 13 0
50870 -227 18 0
50870 227 -13 -18 0
50870 -228 13 0
50870 -228 19 0
50870 228 -13 -19 0
50870 -229 13 0
50870 -229 20 0
50870 229 -13 -20 0
50870 -230 13 0
50870 -230 21 0
50870 230 -13 -21 0
50870 -231 13 0
50870 -231 22 0
50870 231 -13 -22 0
50870 -232 13 0
50870 -232 23 0
50870 232 -13 -23 0
50870 -233 14 0
50870 -233 15 0
50870 233 -14 -15 0
50870 -234 14 0
50870 -234 16 0
50870 234 -14 -16 0
50870 -235 14 0
50870 -235 17 0
50870 235 -14 -17 0
50870 -236 14 0
50870 -236 18 0
50870 236 -14 -18 0
50870 -237 14 0
50870 -237 19 0
50870 237 -14 -19 0
50870 -238 14 0
50870 -238 20 0
50870 238 -14 -20 0
50870 -239 14 0
50870 -239 21 0
50870 239 -14 -21 0
50870 -240 14 0
50870 -240 22 0
50870 240 -14 -22 0
50870 -241 14 0
50870 -241 23 0
50870 241 -14 -23 0
50870 -242 15 0
50870 -242 16 0
50870 242 -15 -16 0
50870 -243 15 0
50870 -243 17 0
50870 243 -15 -17 0
50870 -244 15 0
50870 -244 18 0
50870 244 -15 -18 0
50870 -245 15 0
50870 -245 19 0
50870 245 -15 -19 0
50870 -246 15 0
50870 -246 20 0
50870 246 -15 -20 0
50870 -247 15 0
50870 -247 21 0
50870 247 -15 -21 0
50870 -248 15 0
50870 -248 22 0
50870 248 -15 -22 0
50870 -249 15 0
50870 -249 23 0
50870 249 -15 -23 0
50870 -250 16 0
50870 -250 17 0
50870 250 -16 -17 0
50870 -251 16 0
50870 -251 18 0
50870 251 -16 -18 0
50870 -252 16 0
50870 -252 19 0
50870 252 -16 -19 0
50870 -253 16 0
50870 -253 20 0
50870 253 -16 -20 0
50870 -254 16 0
50870 -254 21 0
50870 254 -16 -21 0
50870 -255 16 0
50870 -255 22 0
50870 255 -16 -22 0
50870 -256 16 0
50870 -256 23 0
50870 256 -16 -23 0
50870 -257 17 0
50870 -257 18 0
50870 257 -17 -18 0
50870 -258 17 0
50870 -258 19 0
50870 258 -17 -19 0
50870 -259 17 0
50870 -259 20 0
50870 259 -17 -20 0
50870 -260 17 0
50870 -260 21 0
50870 260 -17 -21 0
50870 -261 17 0
50870 -261 22 0
50870 261 -17 -22 0
50870 -262 17 0
50870 -262 23 0
50870 262 -17 -23 0
50870 -263 18 0
50870 -263 19 0
50870 263 -18 -19 0
50870 -264 18 0
50870 -264 20 0
50870 264 -18 -20 0
50870 -265 18 0
50870 -265 21 0
50870 265 -18 -21 0
50870 -266 18 0
50870 -266 22 0
50870 266 -18 -22 0
50870 -267 18 0
50870 -267 23 0
50870 267 -18 -23 0
50870 -268 19 0
50870 -268 20 0
50870 268 -19 -20 0
50870 -269 19 0
50870 -269 21 0
50870 269 -19 -21 0
50870 -270 19 0
50870 -270 22 0
50870 270 -19 -22 0
50870 -271 19 0
50870 -271 23 0
50870 271 -19 -23 0
50870 -272 20 0
50870 -272 21 0
50870 272 -20 -21 0
50870 -273 20 0
50870 -273 22 0
50870 273 -20 -22 0
50870 -274 20 0
50870 -274 23 0
50870 274 -20 -23 0
50870 -275 21 0
50870 -275 22 0
50870 275 -21 -22 0
50870 -276 21 0
50870 -276 23 0
50870 276 -21 -23 0
50870 -277 22 0
50870 -277 23 0
50870 277 -22 -23 0
18729 1 0
50860 -1 0
46672 25 0
50860 -25 0
54066 26 0
50860 -26 0
40310 27 0
50860 -27 0
40824 28 0
50860 -28 0
52514 29 0
50860 -29 0
60452 30 0
50860 -30 0
40060 31 0
50860 -31 0
53130 32 0
50860 -32 0
39054 33 0
50860 -33 0
46414 34 0
50860 -34 0
55530 35 0
50860 -35 0
41466 36 0
50860 -36 0
58300 37 0
50860 -37 0
60364 38 0
50860 -38 0
59574 39 0
50860 -39 0
39742 40 0
50860 -40 0
46806 41 0
50860 -41 0
54078 42 0
50860 -42 0
49476 43 0
50860 -43 0
48644 44 0
50860 -44 0
50450 45 0
50860 -45 0
52642 46 0
50860 -46 0
30169 2 0
50860 -2 0
61692 47 0
50860 -47 0
55432 48 0
50860 -48 0
48180 49 0
50860 -49 0
55284 50 0
50860 -50 0
50032 51 0
50860 -51 0
41688 52 0
50860 -52 0
56484 53 0
50860 -53 0
48982 54 0
50860 -54 0
35388 55 0
50860 -55 0
48572 56 0
50860 -56 0
51458 57 0
50860 -57 0
50784 58 0
50860 -58 0
50272 59 0
50860 -59 0
52728 60 0
50860 -60 0
47936 61 0
50860 -61 0
41964 62 0
50860 -62 0
51094 63 0
50860 -63 0
50678 64 0
50860 -64 0
50474 65 0
50860 -65 0
48062 66 0
50860 -66 0
53962 67 0
50860 -67 0
33822 3 0
50860 -3 0
55304 68 0
50860 -68 0
44870 69 0
50860 -69 0
43718 70 0
50860 -70 0
56956 71 0
50860 -71 0
40170 72 0
50860 -72 0
50948 73 0
50860 -73 0
60368 74 0
50860 -74 0
49364 75 0
50860 -75 0
41680 76 0
50860 -76 0
50612 77 0
50860 -77 0
48552 78 0
50860 -78 0
51128 79 0
50860 -79 0
52410 80 0
50860 -80 0
52116 81 0
50860 -81 0
53386 82 0
50860 -82 0
51830 83 0
50860 -83 0
52108 84 0
50860 -84 0
49766 85 0
50860 -85 0
52288 86 0
50860 -86 0
50596 87 0
50860 -87 0
42696 4 0
50860 -4 0
54240 88 0
50860 -88 0
46984 89 0
50860 -89 0
54080 90 0
50860 -90 0
56488 91 0
50860 -91 0
52454 92 0
50860 -92 0
48380 93 0
50860 -93 0
44746 94 0
50860 -94 0
52278 95 0
50860 -95 0
40914 96 0
50860 -96 0
48938 97 0
50860 -97 0
47256 98 0
50860 -98 0
52276 99 0
50860 -99 0
50690 100 0
50860 -100 0
46608 101 0
50860 -101 0
46622 102 0
50860 -102 0
48234 103 0
50860 -103 0
50350 104 0
50860 -104 0
50918 105 0
50860 -105 0
50530 106 0
50860 -106 0
25476 5 0
50860 -5 0
49626 107 0
50860 -107 0
48284 108 0
50860 -108 0
43024 109 0
50860 -109 0
47776 110 0
50860 -110 0
54154 111 0
50860 -111 0
50300 112 0
50860 -112 0
57750 113 0
50860 -113 0
38100 114 0
50860 -114 0
55616 115 0
50860 -115 0
53012 116 0
50860 -116 0
56814 117 0
50860 -117 0
44978 118 0
50860 -118 0
47024 119 0
50860 -119 0
55558 120 0
50860 -120 0
50110 121 0
50860 -121 0
47330 122 0
50860 -122 0
50780 123 0
50860 -123 0
53368 124 0
50860 -124 0
29629 6 0
50860 -6 0
39204 125 0
50860 -125 0
52428 126 0
50860 -126 0
58690 127 0
50860 -127 0
38896 128 0
50860 -128 0
50710 129 0
50860 -129 0
59218 130 0
50860 -130 0
47684 131 0
50860 -131 0
61856 132 0
50860 -132 0
58148 133 0
50860 -133 0
51564 134 0
50860 -134 0
52168 135 0
50860 -135 0
56418 136 0
50860 -136 0
52944 137 0
50860 -137 0
53910 138 0
50860 -138 0
53260 139 0
50860 -139 0
51294 140 0
50860 -140 0
49342 141 0
50860 -141 0
22760 7 0
50860 -7 0
60572 142 0
50860 -142 0
52830 143 0
50860 -143 0
42482 144 0
50860 -144 0
49172 145 0
50860 -145 0
64278 146 0
50860 -146 0
48914 147 0
50860 -147 0
56748 148 0
50860 -148 0
50108 149 0
50860 -149 0
48236 150 0
50860 -150 0
52754 151 0
50860 -151 0
55218 152 0
50860 -152 0
59336 153 0
50860 -153 0
54298 154 0
50860 -154 0
50676 155 0
50860 -155 0
50124 156 0
50860 -156 0
52444 157 0
50860 -157 0
37366 8 0
50860 -8 0
42896 158 0
50860 -158 0
51574 159 0
50860 -159 0
47656 160 0
50860 -160 0
50076 161 0
50860 -161 0
46352 162 0
50860 -162 0
54664 163 0
50860 -163 0
54390 164 0
50860 -164 0
56722 165 0
50860 -165 0
52612 166 0
50860 -166 0
48748 167 0
50860 -167 0
50702 168 0
50860 -168 0
54394 169 0
50860 -169 0
50992 170 0
50860 -170 0
50048 171 0
50860 -171 0
52576 172 0
50860 -172 0
33779 9 0
50860 -9 0
49948 173 0
50860 -173 0
51086 174 0
50860 -174 0
55542 175 0
50860 -175 0
47116 176 0
50860 -176 0
46316 177 0
50860 -177 0
50928 178 0
50860 -178 0
54236 179 0
50860 -179 0
54560 180 0
50860 -180 0
50152 181 0
50860 -181 0
52458 182 0
50860 -182 0
54690 183 0
50860 -183 0
49532 184 0
50860 -184 0
49904 185 0
50860 -185 0
53896 186 0
50860 -186 0
21665 10 0
50860 -10 0
54098 187 0
50860 -187 0
67584 188 0
50860 -188 0
52912 189 0
50860 -189 0
61410 190 0
50860 -190 0
56534 191 0
50860 -191 0
51482 192 0
50860 -192 0
50842 193 0
50860 -193 0
57214 194 0
50860 -194 0
59196 195 0
50860 -195 0
55962 196 0
50860 -196 0
52890 197 0
50860 -197 0
49580 198 0
50860 -198 0
51784 199 0
50860 -199 0
41731 11 0
50860 -11 0
44480 200 0
50860 -200 0
47802 201 0
50860 -201 0
47302 202 0
50860 -202 0
46850 203 0
50860 -203 0
52600 204 0
50860 -204 0
49804 205 0
50860 -205 0
41864 206 0
50860 -206 0
49806 207 0
50860 -207 0
49938 208 0
50860 -208 0
49074 209 0
50860 -209 0
48942 210 0
50860 -210 0
53962 211 0
50860 -211 0
55166 12 0
50860 -12 0
57904 212 0
50860 -212 0
38468 213 0
50860 -213 0
49132 214 0
50860 -214 0
50920 215 0
50860 -215 0
48920 216 0
50860 -216 0
44740 217 0
50860 -217 0
43128 218 0
50860 -218 0
46916 219 0
50860 -219 0
50396 220 0
50860 -220 0
51102 221 0
50860 -221 0
50134 222 0
50860 -222 0
33740 13 0
50860 -13 0
53708 223 0
50860 -223 0
47104 224 0
50860 -224 0
58272 225 0
50860 -225 0
44338 226 0
50860 -226 0
45852 227 0
50860 -227 0
53066 228 0
50860 -228 0
46894 229 0
50860 -229 0
45962 230 0
50860 -230 0
52244 231 0
50860 -231 0
52048 232 0
50860 -232 0
43501 14 0
50860 -14 0
46258 233 0
50860 -233 0
50620 234 0
50860 -234 0
50236 235 0
50860 -235 0
46518 236 0
50860 -236 0
50324 237 0
50860 -237 0
49630 238 0
50860 -238 0
48546 239 0
50860 -239 0
50582 240 0
50860 -240 0
52642 241 0
50860 -241 0
38407 15 0
50860 -15 0
45844 242 0
50860 -242 0
53702 243 0
50860 -243 0
53964 244 0
50860 -244 0
52844 245 0
50860 -245 0
47672 246 0
50860 -246 0
47554 247 0
50860 -247 0
53082 248 0
50860 -248 0
50134 249 0
50860 -249 0
49605 16 0
50860 -16 0
55990 250 0
50860 -250 0
57568 251 0
50860 -251 0
49602 252 0
50860 -252 0
50646 253 0
50860 -253 0
51658 254 0
50860 -254 0
52498 255 0
50860 -255 0
48550 256 0
50860 -256 0
36874 17 0
50860 -17 0
47422 257 0
50860 -257 0
54786 258 0
50860 -258 0
46876 259 0
50860 -259 0
47286 260 0
50860 -260 0
51200 261 0
50860 -261 0
52180 262 0
50860 -262 0
54046 18 0
50860 -18 0
45554 263 0
50860 -263 0
49282 264 0
50860 -264 0
51370 265 0
50860 -265 0
47536 266 0
50860 -266 0
53500 267 0
50860 -267 0
72011 19 0
50860 -19 0
47956 268 0
50860 -268 0
54316 269 0
50860 -269 0
50760 270 0
50860 -270 0
47824 271 0
50860 -271 0
54207 20 0
50860 -20 0
49142 272 0
50860 -272 0
52280 273 0
50860 -273 0
49540 274 0
50860 -274 0
42449 21 0
50860 -21 0
51944 275 0
50860 -275 0
51652 276 0
50860 -276 0
50209 22 0
50860 -22 0
52114 277 0
50860 -277 0
55777 23 0
50860 -23 0
